rectOffsets = 
    [|0,0,3,3|0,0,3,3|0,0,3,4|0,0,4,3|0,0,3,5|0,0,5,3|0,0,3,6|0,0,6,3|0,0,3,7|0,0,7,3|0,0,3,8|0,0,8,3|0,0,3,9|0,0,9,3|0,0,4,3|0,0,3,4|0,0,4,8|0,0,8,4|0,0,4,14|0,0,14,4|0,0,7,3|0,0,3,7|0,0,7,6|0,0,6,7|];

shape = array1d(1..24, [{1}, {2}, {3}, {4}, {5}, {6}, {7}, {8}, {9}, {10},
    {11}, {12}, {13}, {14}, {15}, {16}, {17}, {18}, {19}, {20}, {21},
    {22}, {23}, {24}]);

validshapes = array1d(1..12, [{1,2}, {3,4}, {5,6}, {7,8}, {9,10}, {11,12}, {13,14},
    {15,16}, {17,18}, {19,20}, {21,22}, {23,24}]);

dx = array1d(1..12, [3, 3, 3, 3, 3, 3, 3, 4, 4, 4, 7, 7]);

dy = array1d(1..12, [3, 4, 5, 6, 7, 8, 9, 3, 8, 14, 3, 6]);

w = 17;

n = 12;

o = 24;

